NAME : portgen-39-16423
COMMENT : portgen N=39, seed=16423
TYPE : TSP
DIMENSION : 39
EDGE_WEIGHT_TYPE : EUC_2D
NODE_COORD_SECTION
1 43039 362949
2 516296 639668
3 838135 437481
4 186567 772259
5 27805 665286
6 339659 47601
7 760252 870015
8 708563 597630
9 262431 485816
10 795922 261514
11 671178 141822
12 499743 458906
13 397112 544893
14 909081 667720
15 117775 105696
16 977115 31766
17 495151 613123
18 150683 637179
19 838877 118171
20 418010 354099
21 262989 219258
22 542641 546423
23 937416 272851
24 898359 50427
25 48392 265772
26 742650 485209
27 429537 876525
28 540793 11273
29 867797 903173
30 488985 200956
31 598603 68395
32 354248 673706
33 402297 120401
34 504959 213828
35 932599 435712
36 699270 212004
37 437424 530149
38 518864 185969
39 712284 623217
